99 99
31 74
45 76
2 53
46 29
21 68
35 79
39 34
13 88
40 73
5 90
37 19
36 59
19 82
23 12
23 55
7 61
11 18
4 6
1 23
26 70
33 56
12 31
24 36
34 85
13 38
25 33
18 30
30 27
3 50
42 44
15 26
47 10
16 80
30 66
14 22
8 3
38 20
47 4
6 15
32 43
27 45
48 7
49 37
1 71
44 63
4 78
9 13
41 40
43 93
32 9
5 96
25 21
18 64
35 52
17 41
1 11
40 47
29 62
39 24
16 69
20 25
27 2
9 60
45 28
8 51
26 81
42 54
20 99
36 89
6 16
31 92
48 97
14 77
41 5
28 91
11 65
3 83
33 39
29 8
19 87
7 98
12 46
17 17
22 58
37 75
2 32
24 72
10 42
44 84
38 57
49 94
34 35
15 1
28 14
10 48
46 67
43 49
21 95
22 86
